c instance by G2
c solution = 111111101
c Known solution cost is 496 
p cnf 9 30
w 86 12 17 82 44 75 83 56 41
-6 -4 9 0
3 -6 -9 0
8 -2 5 0
-4 9 2 0
6 1 -4 0
-6 -5 7 0
4 1 7 0
1 -8 5 0
-3 -9 6 0
-5 -9 1 0
-7 -8 -2 0
-6 3 5 0
-5 2 6 0
-5 3 -9 0
3 -1 -7 0
9 -7 -8 0
8 6 -1 0
-8 -3 4 0
-9 2 -7 0
-1 3 4 0
-6 4 8 0
1 -8 3 0
4 8 -1 0
4 -8 -5 0
3 -6 -5 0
3 -6 -8 0
-6 -8 3 0
4 -9 -2 0
-1 9 -5 0
-8 -6 -2 0
